[2026-03-24T14:35:44.863Z] Pipeline "set_vm-3-t1_vm-3-t1_s017_g002" → 2026_03_24_14_35_44_set_vm-3-t1_vm-3-t1_s017_g002_max.sol
Set parameter Username
Set parameter LicenseID to value 2796068
Set parameter LogFile to value "gurobi.log"
Using license file /opt/gurobi/gurobi.lic
Academic license - for non-commercial use only - expires 2027-03-23

Gurobi Optimizer version 13.0.1 build v13.0.1rc0 (linux64 - "Ubuntu 24.04.4 LTS")
Copyright (c) 2026, Gurobi Optimization, LLC

Warning: Duplicate section found (read 'binary') - Is a variable name equal to an LP file format keyword?
Warning: Duplicate section found (read 'binary') - Is a variable name equal to an LP file format keyword?
Warning: Duplicate section found (read 'binary') - Is a variable name equal to an LP file format keyword?
Warning: Duplicate section found (read 'binary') - Is a variable name equal to an LP file format keyword?
Warning: Duplicate section found (read 'binary') - Is a variable name equal to an LP file format keyword?
Warning: Duplicate section found (read 'binary') - Is a variable name equal to an LP file format keyword?
Warning: Duplicate section found (read 'binary') - Is a variable name equal to an LP file format keyword?
Warning: Duplicate section found (read 'binary') - Is a variable name equal to an LP file format keyword?
Warning: Duplicate section found (read 'binary') - Is a variable name equal to an LP file format keyword?
Warning: Duplicate section found (read 'binary') - Is a variable name equal to an LP file format keyword?
Warning: Further warnings of this type will be omitted.
Read LP format model from file /root/bgw/data/uploads/2026_03_24_14_35_44_set_vm-3-t1_vm-3-t1_s017_g002_max.lp
Reading time = 0.01 seconds
: 6404 rows, 486 columns, 19404 nonzeros

Using Gurobi shared library /opt/gurobi1301/linux64/lib/libgurobi.so.13.0.1

CPU model: AMD EPYC-Genoa Processor, instruction set [SSE2|AVX|AVX2|AVX512]
Thread count: 16 physical cores, 16 logical processors, using up to 16 threads

Optimize a model with 6404 rows, 486 columns and 19404 nonzeros (Max)
Model fingerprint: 0x9f85aa31
Model has 23 linear objective coefficients
Variable types: 50 continuous, 436 integer (436 binary)
Coefficient statistics:
  Matrix range     [1e+00, 3e+01]
  Objective range  [1e+00, 1e+00]
  Bounds range     [1e+00, 1e+00]
  RHS range        [1e+00, 3e+01]

Found heuristic solution: objective 23.0000000
Presolve removed 504 rows and 105 columns
Presolve time: 0.02s
Presolved: 5900 rows, 381 columns, 17940 nonzeros
Variable types: 0 continuous, 381 integer (371 binary)

Root relaxation: objective 1.170000e+02, 333 iterations, 0.02 seconds (0.03 work units)

    Nodes    |    Current Node    |     Objective Bounds      |     Work
 Expl Unexpl |  Obj  Depth IntInf | Incumbent    BestBd   Gap | It/Node Time

     0     0  117.00000    0   48   23.00000  117.00000   409%     -    0s
H    0     0                      41.0000000  117.00000   185%     -    0s
H    0     0                      53.0000000  117.00000   121%     -    0s
H    0     0                      59.0000000  117.00000  98.3%     -    0s
H    0     0                      60.0000000  117.00000  95.0%     -    0s
H    0     0                      61.0000000  117.00000  91.8%     -    0s
     0     0  117.00000    0   76   61.00000  117.00000  91.8%     -    0s
     0     0  117.00000    0   69   61.00000  117.00000  91.8%     -    0s
     0     0  117.00000    0   40   61.00000  117.00000  91.8%     -    0s
H    0     0                      62.0000000  117.00000  88.7%     -    0s
H    0     0                      63.0000000  117.00000  85.7%     -    0s
     0     0  117.00000    0   52   63.00000  117.00000  85.7%     -    0s
     0     0  117.00000    0   51   63.00000  117.00000  85.7%     -    0s
     0     0  117.00000    0   70   63.00000  117.00000  85.7%     -    0s
     0     0  117.00000    0   46   63.00000  117.00000  85.7%     -    0s
     0     0  117.00000    0   50   63.00000  117.00000  85.7%     -    0s
     0     0  117.00000    0   49   63.00000  117.00000  85.7%     -    0s
     0     0  117.00000    0   51   63.00000  117.00000  85.7%     -    0s
     0     0  117.00000    0   48   63.00000  117.00000  85.7%     -    0s
     0     0  117.00000    0   47   63.00000  117.00000  85.7%     -    0s
     0     0  117.00000    0   47   63.00000  117.00000  85.7%     -    0s
     0     0  117.00000    0   47   63.00000  117.00000  85.7%     -    0s
     0     0  117.00000    0   45   63.00000  117.00000  85.7%     -    0s
     0     2  117.00000    0   45   63.00000  117.00000  85.7%     -    0s
H   29    41                      64.0000000  117.00000  82.8%   159    0s
  3288  1425  103.31714    8   60   64.00000  113.71000  77.7%   145    5s
  7240  1441 infeasible   29        64.00000  103.68000  62.0%   123   10s
 17047  1510   74.70000   28   87   64.00000   86.72000  35.5%   111   15s

Explored 26503 nodes (3206299 simplex iterations) in 19.71 seconds (45.61 work units)
Thread count was 16 (of 16 available processors)

Solution count 10: 64 64 64 ... 53

Optimal solution found (tolerance 1.00e-04)
Best objective 6.400000000000e+01, best bound 6.400000000000e+01, gap 0.0000%

Wrote result file '/root/bgw/data/results/2026_03_24_14_35_44_set_vm-3-t1_vm-3-t1_s017_g002_max.sol'

